NAME: A-n7-f3
COMMENT : -
TYPE : GVRP
DIMENSION : 9
EDGE_WEIGHT_TYPE : EUC_2D
CAPACITY : 100
AUTONOMY : 392
TIME LIMIT : 11
SPEED : 40.0
FUEL CONSUMPTION : 1.0
DEPOT_COORD_SECTION
0 82 76
CUSTOMER_COORD_SECTION
1 29 89 19 0.8171545316454143
2 58 30 21 0.3313702371993019
3 5 10 6 0.7141200725796126
4 50 93 19 0.738918367634544
5 57 69 7 0.44199599502278486
6 23 15 12 0.882966533833812
AFS_COORD_SECTION
7 37 36 0.25
8 67 46 0.25
9 74 83 0.25
EOF